(set-logic QF_LRA)
(declare-fun X0 () Real )
(declare-fun Y0 () Real )
(declare-fun X1 () Real )
(declare-fun Y1 () Real )
(declare-fun X2 () Real )
(declare-fun Y2 () Real )
(declare-fun X3 () Real )
(declare-fun Y3 () Real )
(declare-fun X4 () Real )
(declare-fun Y4 () Real )
(declare-fun X5 () Real )
(declare-fun Y5 () Real )
(declare-fun X6 () Real )
(declare-fun Y6 () Real )
(declare-fun X7 () Real )
(declare-fun Y7 () Real )
(declare-fun X8 () Real )
(declare-fun Y8 () Real )
(declare-fun X9 () Real )
(declare-fun Y9 () Real )
(declare-fun X10 () Real )
(declare-fun Y10 () Real )
(declare-fun X11 () Real )
(declare-fun Y11 () Real )
(declare-fun Z () Real )
(declare-fun k () Real )
(assert (let
(( $goal (>= Z k) ))
(let
((
$phi ( and 
( or ( <= ( + X0 58 ) X1 )  ( <= ( + X1 77 ) X0 )  ( <= ( + Y0 41 ) Y1 )  ( <= ( + Y1 73 ) Y0 )  )
( or ( <= ( + X0 58 ) X2 )  ( <= ( + X2 85 ) X0 )  ( <= ( + Y0 41 ) Y2 )  ( <= ( + Y2 90 ) Y0 )  )
( or ( <= ( + X0 58 ) X3 )  ( <= ( + X3 78 ) X0 )  ( <= ( + Y0 41 ) Y3 )  ( <= ( + Y3 42 ) Y0 )  )
( or ( <= ( + X0 58 ) X4 )  ( <= ( + X4 57 ) X0 )  ( <= ( + Y0 41 ) Y4 )  ( <= ( + Y4 72 ) Y0 )  )
( or ( <= ( + X0 58 ) X5 )  ( <= ( + X5 66 ) X0 )  ( <= ( + Y0 41 ) Y5 )  ( <= ( + Y5 89 ) Y0 )  )
( or ( <= ( + X0 58 ) X6 )  ( <= ( + X6 43 ) X0 )  ( <= ( + Y0 41 ) Y6 )  ( <= ( + Y6 65 ) Y0 )  )
( or ( <= ( + X0 58 ) X7 )  ( <= ( + X7 68 ) X0 )  ( <= ( + Y0 41 ) Y7 )  ( <= ( + Y7 64 ) Y0 )  )
( or ( <= ( + X0 58 ) X8 )  ( <= ( + X8 9 ) X0 )  ( <= ( + Y0 41 ) Y8 )  ( <= ( + Y8 75 ) Y0 )  )
( or ( <= ( + X0 58 ) X9 )  ( <= ( + X9 89 ) X0 )  ( <= ( + Y0 41 ) Y9 )  ( <= ( + Y9 49 ) Y0 )  )
( or ( <= ( + X0 58 ) X10 )  ( <= ( + X10 17 ) X0 )  ( <= ( + Y0 41 ) Y10 )  ( <= ( + Y10 3 ) Y0 )  )
( or ( <= ( + X0 58 ) X11 )  ( <= ( + X11 76 ) X0 )  ( <= ( + Y0 41 ) Y11 )  ( <= ( + Y11 21 ) Y0 )  )
( or ( <= ( + X1 77 ) X2 )  ( <= ( + X2 85 ) X1 )  ( <= ( + Y1 73 ) Y2 )  ( <= ( + Y2 90 ) Y1 )  )
( or ( <= ( + X1 77 ) X3 )  ( <= ( + X3 78 ) X1 )  ( <= ( + Y1 73 ) Y3 )  ( <= ( + Y3 42 ) Y1 )  )
( or ( <= ( + X1 77 ) X4 )  ( <= ( + X4 57 ) X1 )  ( <= ( + Y1 73 ) Y4 )  ( <= ( + Y4 72 ) Y1 )  )
( or ( <= ( + X1 77 ) X5 )  ( <= ( + X5 66 ) X1 )  ( <= ( + Y1 73 ) Y5 )  ( <= ( + Y5 89 ) Y1 )  )
( or ( <= ( + X1 77 ) X6 )  ( <= ( + X6 43 ) X1 )  ( <= ( + Y1 73 ) Y6 )  ( <= ( + Y6 65 ) Y1 )  )
( or ( <= ( + X1 77 ) X7 )  ( <= ( + X7 68 ) X1 )  ( <= ( + Y1 73 ) Y7 )  ( <= ( + Y7 64 ) Y1 )  )
( or ( <= ( + X1 77 ) X8 )  ( <= ( + X8 9 ) X1 )  ( <= ( + Y1 73 ) Y8 )  ( <= ( + Y8 75 ) Y1 )  )
( or ( <= ( + X1 77 ) X9 )  ( <= ( + X9 89 ) X1 )  ( <= ( + Y1 73 ) Y9 )  ( <= ( + Y9 49 ) Y1 )  )
( or ( <= ( + X1 77 ) X10 )  ( <= ( + X10 17 ) X1 )  ( <= ( + Y1 73 ) Y10 )  ( <= ( + Y10 3 ) Y1 )  )
( or ( <= ( + X1 77 ) X11 )  ( <= ( + X11 76 ) X1 )  ( <= ( + Y1 73 ) Y11 )  ( <= ( + Y11 21 ) Y1 )  )
( or ( <= ( + X2 85 ) X3 )  ( <= ( + X3 78 ) X2 )  ( <= ( + Y2 90 ) Y3 )  ( <= ( + Y3 42 ) Y2 )  )
( or ( <= ( + X2 85 ) X4 )  ( <= ( + X4 57 ) X2 )  ( <= ( + Y2 90 ) Y4 )  ( <= ( + Y4 72 ) Y2 )  )
( or ( <= ( + X2 85 ) X5 )  ( <= ( + X5 66 ) X2 )  ( <= ( + Y2 90 ) Y5 )  ( <= ( + Y5 89 ) Y2 )  )
( or ( <= ( + X2 85 ) X6 )  ( <= ( + X6 43 ) X2 )  ( <= ( + Y2 90 ) Y6 )  ( <= ( + Y6 65 ) Y2 )  )
( or ( <= ( + X2 85 ) X7 )  ( <= ( + X7 68 ) X2 )  ( <= ( + Y2 90 ) Y7 )  ( <= ( + Y7 64 ) Y2 )  )
( or ( <= ( + X2 85 ) X8 )  ( <= ( + X8 9 ) X2 )  ( <= ( + Y2 90 ) Y8 )  ( <= ( + Y8 75 ) Y2 )  )
( or ( <= ( + X2 85 ) X9 )  ( <= ( + X9 89 ) X2 )  ( <= ( + Y2 90 ) Y9 )  ( <= ( + Y9 49 ) Y2 )  )
( or ( <= ( + X2 85 ) X10 )  ( <= ( + X10 17 ) X2 )  ( <= ( + Y2 90 ) Y10 )  ( <= ( + Y10 3 ) Y2 )  )
( or ( <= ( + X2 85 ) X11 )  ( <= ( + X11 76 ) X2 )  ( <= ( + Y2 90 ) Y11 )  ( <= ( + Y11 21 ) Y2 )  )
( or ( <= ( + X3 78 ) X4 )  ( <= ( + X4 57 ) X3 )  ( <= ( + Y3 42 ) Y4 )  ( <= ( + Y4 72 ) Y3 )  )
( or ( <= ( + X3 78 ) X5 )  ( <= ( + X5 66 ) X3 )  ( <= ( + Y3 42 ) Y5 )  ( <= ( + Y5 89 ) Y3 )  )
( or ( <= ( + X3 78 ) X6 )  ( <= ( + X6 43 ) X3 )  ( <= ( + Y3 42 ) Y6 )  ( <= ( + Y6 65 ) Y3 )  )
( or ( <= ( + X3 78 ) X7 )  ( <= ( + X7 68 ) X3 )  ( <= ( + Y3 42 ) Y7 )  ( <= ( + Y7 64 ) Y3 )  )
( or ( <= ( + X3 78 ) X8 )  ( <= ( + X8 9 ) X3 )  ( <= ( + Y3 42 ) Y8 )  ( <= ( + Y8 75 ) Y3 )  )
( or ( <= ( + X3 78 ) X9 )  ( <= ( + X9 89 ) X3 )  ( <= ( + Y3 42 ) Y9 )  ( <= ( + Y9 49 ) Y3 )  )
( or ( <= ( + X3 78 ) X10 )  ( <= ( + X10 17 ) X3 )  ( <= ( + Y3 42 ) Y10 )  ( <= ( + Y10 3 ) Y3 )  )
( or ( <= ( + X3 78 ) X11 )  ( <= ( + X11 76 ) X3 )  ( <= ( + Y3 42 ) Y11 )  ( <= ( + Y11 21 ) Y3 )  )
( or ( <= ( + X4 57 ) X5 )  ( <= ( + X5 66 ) X4 )  ( <= ( + Y4 72 ) Y5 )  ( <= ( + Y5 89 ) Y4 )  )
( or ( <= ( + X4 57 ) X6 )  ( <= ( + X6 43 ) X4 )  ( <= ( + Y4 72 ) Y6 )  ( <= ( + Y6 65 ) Y4 )  )
( or ( <= ( + X4 57 ) X7 )  ( <= ( + X7 68 ) X4 )  ( <= ( + Y4 72 ) Y7 )  ( <= ( + Y7 64 ) Y4 )  )
( or ( <= ( + X4 57 ) X8 )  ( <= ( + X8 9 ) X4 )  ( <= ( + Y4 72 ) Y8 )  ( <= ( + Y8 75 ) Y4 )  )
( or ( <= ( + X4 57 ) X9 )  ( <= ( + X9 89 ) X4 )  ( <= ( + Y4 72 ) Y9 )  ( <= ( + Y9 49 ) Y4 )  )
( or ( <= ( + X4 57 ) X10 )  ( <= ( + X10 17 ) X4 )  ( <= ( + Y4 72 ) Y10 )  ( <= ( + Y10 3 ) Y4 )  )
( or ( <= ( + X4 57 ) X11 )  ( <= ( + X11 76 ) X4 )  ( <= ( + Y4 72 ) Y11 )  ( <= ( + Y11 21 ) Y4 )  )
( or ( <= ( + X5 66 ) X6 )  ( <= ( + X6 43 ) X5 )  ( <= ( + Y5 89 ) Y6 )  ( <= ( + Y6 65 ) Y5 )  )
( or ( <= ( + X5 66 ) X7 )  ( <= ( + X7 68 ) X5 )  ( <= ( + Y5 89 ) Y7 )  ( <= ( + Y7 64 ) Y5 )  )
( or ( <= ( + X5 66 ) X8 )  ( <= ( + X8 9 ) X5 )  ( <= ( + Y5 89 ) Y8 )  ( <= ( + Y8 75 ) Y5 )  )
( or ( <= ( + X5 66 ) X9 )  ( <= ( + X9 89 ) X5 )  ( <= ( + Y5 89 ) Y9 )  ( <= ( + Y9 49 ) Y5 )  )
( or ( <= ( + X5 66 ) X10 )  ( <= ( + X10 17 ) X5 )  ( <= ( + Y5 89 ) Y10 )  ( <= ( + Y10 3 ) Y5 )  )
( or ( <= ( + X5 66 ) X11 )  ( <= ( + X11 76 ) X5 )  ( <= ( + Y5 89 ) Y11 )  ( <= ( + Y11 21 ) Y5 )  )
( or ( <= ( + X6 43 ) X7 )  ( <= ( + X7 68 ) X6 )  ( <= ( + Y6 65 ) Y7 )  ( <= ( + Y7 64 ) Y6 )  )
( or ( <= ( + X6 43 ) X8 )  ( <= ( + X8 9 ) X6 )  ( <= ( + Y6 65 ) Y8 )  ( <= ( + Y8 75 ) Y6 )  )
( or ( <= ( + X6 43 ) X9 )  ( <= ( + X9 89 ) X6 )  ( <= ( + Y6 65 ) Y9 )  ( <= ( + Y9 49 ) Y6 )  )
( or ( <= ( + X6 43 ) X10 )  ( <= ( + X10 17 ) X6 )  ( <= ( + Y6 65 ) Y10 )  ( <= ( + Y10 3 ) Y6 )  )
( or ( <= ( + X6 43 ) X11 )  ( <= ( + X11 76 ) X6 )  ( <= ( + Y6 65 ) Y11 )  ( <= ( + Y11 21 ) Y6 )  )
( or ( <= ( + X7 68 ) X8 )  ( <= ( + X8 9 ) X7 )  ( <= ( + Y7 64 ) Y8 )  ( <= ( + Y8 75 ) Y7 )  )
( or ( <= ( + X7 68 ) X9 )  ( <= ( + X9 89 ) X7 )  ( <= ( + Y7 64 ) Y9 )  ( <= ( + Y9 49 ) Y7 )  )
( or ( <= ( + X7 68 ) X10 )  ( <= ( + X10 17 ) X7 )  ( <= ( + Y7 64 ) Y10 )  ( <= ( + Y10 3 ) Y7 )  )
( or ( <= ( + X7 68 ) X11 )  ( <= ( + X11 76 ) X7 )  ( <= ( + Y7 64 ) Y11 )  ( <= ( + Y11 21 ) Y7 )  )
( or ( <= ( + X8 9 ) X9 )  ( <= ( + X9 89 ) X8 )  ( <= ( + Y8 75 ) Y9 )  ( <= ( + Y9 49 ) Y8 )  )
( or ( <= ( + X8 9 ) X10 )  ( <= ( + X10 17 ) X8 )  ( <= ( + Y8 75 ) Y10 )  ( <= ( + Y10 3 ) Y8 )  )
( or ( <= ( + X8 9 ) X11 )  ( <= ( + X11 76 ) X8 )  ( <= ( + Y8 75 ) Y11 )  ( <= ( + Y11 21 ) Y8 )  )
( or ( <= ( + X9 89 ) X10 )  ( <= ( + X10 17 ) X9 )  ( <= ( + Y9 49 ) Y10 )  ( <= ( + Y10 3 ) Y9 )  )
( or ( <= ( + X9 89 ) X11 )  ( <= ( + X11 76 ) X9 )  ( <= ( + Y9 49 ) Y11 )  ( <= ( + Y11 21 ) Y9 )  )
( or ( <= ( + X10 17 ) X11 )  ( <= ( + X11 76 ) X10 )  ( <= ( + Y10 3 ) Y11 )  ( <= ( + Y11 21 ) Y10 )  )
( >= X0 0)
( <= ( + X0 58) Z)
( >= Y0 0)
( <= ( + Y0 41 ) 100)
( >= X1 0)
( <= ( + X1 77) Z)
( >= Y1 0)
( <= ( + Y1 73 ) 100)
( >= X2 0)
( <= ( + X2 85) Z)
( >= Y2 0)
( <= ( + Y2 90 ) 100)
( >= X3 0)
( <= ( + X3 78) Z)
( >= Y3 0)
( <= ( + Y3 42 ) 100)
( >= X4 0)
( <= ( + X4 57) Z)
( >= Y4 0)
( <= ( + Y4 72 ) 100)
( >= X5 0)
( <= ( + X5 66) Z)
( >= Y5 0)
( <= ( + Y5 89 ) 100)
( >= X6 0)
( <= ( + X6 43) Z)
( >= Y6 0)
( <= ( + Y6 65 ) 100)
( >= X7 0)
( <= ( + X7 68) Z)
( >= Y7 0)
( <= ( + Y7 64 ) 100)
( >= X8 0)
( <= ( + X8 9) Z)
( >= Y8 0)
( <= ( + Y8 75 ) 100)
( >= X9 0)
( <= ( + X9 89) Z)
( >= Y9 0)
( <= ( + Y9 49 ) 100)
( >= X10 0)
( <= ( + X10 17) Z)
( >= Y10 0)
( <= ( + Y10 3 ) 100)
( >= X11 0)
( <= ( + X11 76) Z)
( >= Y11 0)
( <= ( + Y11 21 ) 100)
) )
)(=> $phi $goal))))